;; translated from ./bv/SpamAssassin-loop.c.vmt
;; original benchmark available at: https://es-static.fbk.eu/people/griggio/ic3ia/index.html
;; author: Alberto Griggio <griggio@fbk.eu>
(set-logic HORN)
(declare-fun state (Bool Bool Bool Bool Bool (_ BitVec 32) (_ BitVec 32) (_ BitVec 32) (_ BitVec 32) (_ BitVec 32) (_ BitVec 32) (_ BitVec 32)) Bool)
(assert (forall ((|.PC.0.next| Bool) (|.PC.1.next| Bool) (|.PC.2.next| Bool) (|.PC.3.next| Bool) (|.PC.4.next| Bool) (|limit__9$main| (_ BitVec 32)) (|limit__9$main.next| (_ BitVec 32)) (|__BLAST_NONDET| (_ BitVec 32)) (|__BLAST_NONDET.next| (_ BitVec 32)) (|i__3$main| (_ BitVec 32)) (|i__3$main.next| (_ BitVec 32)) (|len__1$main| (_ BitVec 32)) (|len__1$main.next| (_ BitVec 32)) (|__RET__$main.next| (_ BitVec 32)) (|__RET__$main| (_ BitVec 32)) (|j__5$main.next| (_ BitVec 32)) (|j__5$main| (_ BitVec 32)) (|bufsize__7$main| (_ BitVec 32)) (|bufsize__7$main.next| (_ BitVec 32)) (|j__5$main.SSA.1.ssa| (_ BitVec 32)) (|i__3$main.SSA.1.ssa| (_ BitVec 32)) (|j__5$main.SSA.2.ssa| (_ BitVec 32)) (|__NONDET_INLINE_INIT__2__5$main#0| (_ BitVec 32)) (|__NONDET_INLINE_INIT__8__8$main#1| (_ BitVec 32)) (|.PC.1| Bool) (|.PC.0| Bool) (|.PC.2| Bool) (|.PC.3| Bool) (|.PC.4| Bool)) (=> (let ((.def_16 (not .PC.1)))
(let ((.def_17 (and .PC.0 .def_16)))
(let ((.def_13 (not .PC.2)))
(let ((.def_18 (and .def_13 .def_17)))
(let ((.def_19 (and .PC.3 .def_18)))
(let ((.def_10 (not .PC.4)))
(let ((.def_20 (and .def_10 .def_19)))
.def_20))))))) (state |.PC.4| |.PC.3| |.PC.2| |.PC.0| |.PC.1| |__RET__$main| |j__5$main| |len__1$main| |i__3$main| |__BLAST_NONDET| |limit__9$main| |bufsize__7$main|))))
(assert (forall ((|.PC.0.next| Bool) (|.PC.1.next| Bool) (|.PC.2.next| Bool) (|.PC.3.next| Bool) (|.PC.4.next| Bool) (|limit__9$main| (_ BitVec 32)) (|limit__9$main.next| (_ BitVec 32)) (|__BLAST_NONDET| (_ BitVec 32)) (|__BLAST_NONDET.next| (_ BitVec 32)) (|i__3$main| (_ BitVec 32)) (|i__3$main.next| (_ BitVec 32)) (|len__1$main| (_ BitVec 32)) (|len__1$main.next| (_ BitVec 32)) (|__RET__$main.next| (_ BitVec 32)) (|__RET__$main| (_ BitVec 32)) (|j__5$main.next| (_ BitVec 32)) (|j__5$main| (_ BitVec 32)) (|bufsize__7$main| (_ BitVec 32)) (|bufsize__7$main.next| (_ BitVec 32)) (|j__5$main.SSA.1.ssa| (_ BitVec 32)) (|i__3$main.SSA.1.ssa| (_ BitVec 32)) (|j__5$main.SSA.2.ssa| (_ BitVec 32)) (|__NONDET_INLINE_INIT__2__5$main#0| (_ BitVec 32)) (|__NONDET_INLINE_INIT__8__8$main#1| (_ BitVec 32)) (|.PC.1| Bool) (|.PC.0| Bool) (|.PC.2| Bool) (|.PC.3| Bool) (|.PC.4| Bool)) (=> (and (state |.PC.4| |.PC.3| |.PC.2| |.PC.0| |.PC.1| |__RET__$main| |j__5$main| |len__1$main| |i__3$main| |__BLAST_NONDET| |limit__9$main| |bufsize__7$main|) (let ((.def_62 (not .PC.0)))
(let ((.def_16 (not .PC.1)))
(let ((.def_107 (and .def_16 .def_62)))
(let ((.def_13 (not .PC.2)))
(let ((.def_456 (and .def_13 .def_107)))
(let ((.def_488 (and .PC.3 .def_456)))
(let ((.def_10 (not .PC.4)))
(let ((.def_489 (and .def_10 .def_488)))
(let ((.def_86 (not .PC.1.next)))
(let ((.def_49 (not .PC.0.next)))
(let ((.def_87 (and .def_49 .def_86)))
(let ((.def_53 (not .PC.2.next)))
(let ((.def_180 (and .def_53 .def_87)))
(let ((.def_424 (and .PC.3.next .def_180)))
(let ((.def_58 (not .PC.4.next)))
(let ((.def_425 (and .def_58 .def_424)))
(let ((.def_490 (and .def_425 .def_489)))
(let ((.def_17 (and .PC.0 .def_16)))
(let ((.def_434 (and .PC.2 .def_17)))
(let ((.def_484 (and .PC.3 .def_434)))
(let ((.def_485 (and .def_10 .def_484)))
(let ((.def_76 (= limit__9$main.next limit__9$main)))
(let ((.def_73 (= __BLAST_NONDET.next __BLAST_NONDET)))
(let ((.def_418 (and .def_73 .def_76)))
(let ((.def_78 (= i__3$main.next i__3$main)))
(let ((.def_419 (and .def_78 .def_418)))
(let ((.def_80 (= len__1$main.next len__1$main)))
(let ((.def_420 (and .def_80 .def_419)))
(let ((.def_42 (= __RET__$main __RET__$main.next)))
(let ((.def_421 (and .def_42 .def_420)))
(let ((.def_46 (= j__5$main j__5$main.next)))
(let ((.def_422 (and .def_46 .def_421)))
(let ((.def_84 (= bufsize__7$main.next bufsize__7$main)))
(let ((.def_423 (and .def_84 .def_422)))
(let ((.def_426 (and .def_423 .def_425)))
(let ((.def_486 (and .def_426 .def_485)))
(let ((.def_63 (and .PC.1 .def_62)))
(let ((.def_429 (and .PC.2 .def_63)))
(let ((.def_480 (and .PC.3 .def_429)))
(let ((.def_481 (and .def_10 .def_480)))
(let ((.def_482 (and .def_426 .def_481)))
(let ((.def_414 (and .PC.0 .PC.1)))
(let ((.def_415 (and .PC.2 .def_414)))
(let ((.def_476 (and .PC.3 .def_415)))
(let ((.def_477 (and .def_10 .def_476)))
(let ((.def_478 (and .def_426 .def_477)))
(let ((.def_413 (not .PC.3)))
(let ((.def_457 (and .def_413 .def_456)))
(let ((.def_473 (and .PC.4 .def_457)))
(let ((.def_474 (and .def_426 .def_473)))
(let ((.def_18 (and .def_13 .def_17)))
(let ((.def_452 (and .def_18 .def_413)))
(let ((.def_470 (and .PC.4 .def_452)))
(let ((.def_471 (and .def_426 .def_470)))
(let ((.def_64 (and .def_13 .def_63)))
(let ((.def_448 (and .def_64 .def_413)))
(let ((.def_467 (and .PC.4 .def_448)))
(let ((.def_468 (and .def_426 .def_467)))
(let ((.def_443 (and .def_13 .def_414)))
(let ((.def_444 (and .def_413 .def_443)))
(let ((.def_464 (and .PC.4 .def_444)))
(let ((.def_465 (and .def_426 .def_464)))
(let ((.def_108 (and .PC.2 .def_107)))
(let ((.def_439 (and .def_108 .def_413)))
(let ((.def_461 (and .PC.4 .def_439)))
(let ((.def_462 (and .def_426 .def_461)))
(let ((.def_458 (and .def_10 .def_457)))
(let ((.def_459 (and .def_426 .def_458)))
(let ((.def_453 (and .def_10 .def_452)))
(let ((.def_454 (and .def_426 .def_453)))
(let ((.def_449 (and .def_10 .def_448)))
(let ((.def_450 (and .def_426 .def_449)))
(let ((.def_445 (and .def_10 .def_444)))
(let ((.def_446 (and .def_426 .def_445)))
(let ((.def_440 (and .def_10 .def_439)))
(let ((.def_441 (and .def_426 .def_440)))
(let ((.def_435 (and .def_413 .def_434)))
(let ((.def_436 (and .def_10 .def_435)))
(let ((.def_437 (and .def_426 .def_436)))
(let ((.def_430 (and .def_413 .def_429)))
(let ((.def_431 (and .def_10 .def_430)))
(let ((.def_432 (and .def_426 .def_431)))
(let ((.def_416 (and .def_413 .def_415)))
(let ((.def_417 (and .def_10 .def_416)))
(let ((.def_427 (and .def_417 .def_426)))
(let ((.def_153 (= __BLAST_NONDET (_ bv0 32))))
(let ((.def_327 (not .def_153)))
(let ((.def_135 ((_ extract 31 31) i__3$main)))
(let ((.def_136 (= .def_135 (_ bv1 1))))
(let ((.def_151 (not .def_136)))
(let ((.def_94 (bvslt j__5$main limit__9$main)))
(let ((.def_70 (bvslt i__3$main len__1$main)))
(let ((.def_117 (and .def_70 .def_94)))
(let ((.def_114 (bvadd (_ bv1 32) i__3$main)))
(let ((.def_115 (bvslt .def_114 len__1$main)))
(let ((.def_118 (and .def_115 .def_117)))
(let ((.def_134 (and .def_115 .def_118)))
(let ((.def_152 (and .def_134 .def_151)))
(let ((.def_328 (and .def_152 .def_327)))
(let ((.def_116 (not .def_115)))
(let ((.def_326 (and .def_116 .def_117)))
(let ((.def_329 (or .def_326 .def_328)))
(let ((.def_342 (and .def_70 .def_329)))
(let ((.def_356 (and .def_151 .def_342)))
(let ((.def_186 (bvslt j__5$main bufsize__7$main)))
(let ((.def_370 (and .def_186 .def_356)))
(let ((.def_204 ((_ extract 31 31) j__5$main)))
(let ((.def_205 (= .def_204 (_ bv1 1))))
(let ((.def_223 (not .def_205)))
(let ((.def_399 (and .def_223 .def_370)))
(let ((.def_221 (bvadd (_ bv1 32) j__5$main)))
(let ((.def_293 (= .def_221 j__5$main.SSA.1.ssa)))
(let ((.def_400 (and .def_293 .def_399)))
(let ((.def_295 (= .def_114 i__3$main.SSA.1.ssa)))
(let ((.def_401 (and .def_295 .def_400)))
(let ((.def_398 (= i__3$main.next i__3$main.SSA.1.ssa)))
(let ((.def_402 (and .def_398 .def_401)))
(let ((.def_397 (= j__5$main.next j__5$main.SSA.1.ssa)))
(let ((.def_403 (and .def_397 .def_402)))
(let ((.def_394 (bvadd (_ bv1 32) j__5$main.SSA.2.ssa)))
(let ((.def_395 (= j__5$main.next .def_394)))
(let ((.def_282 (bvadd (_ bv1 32) j__5$main.SSA.1.ssa)))
(let ((.def_389 (= .def_282 j__5$main.SSA.2.ssa)))
(let ((.def_154 (and .def_152 .def_153)))
(let ((.def_170 (and .def_70 .def_154)))
(let ((.def_188 (and .def_151 .def_170)))
(let ((.def_203 (and .def_186 .def_188)))
(let ((.def_224 (and .def_203 .def_223)))
(let ((.def_294 (and .def_224 .def_293)))
(let ((.def_296 (and .def_294 .def_295)))
(let ((.def_292 (bvslt i__3$main.SSA.1.ssa len__1$main)))
(let ((.def_297 (and .def_292 .def_296)))
(let ((.def_289 ((_ extract 31 31) i__3$main.SSA.1.ssa)))
(let ((.def_290 (= .def_289 (_ bv1 1))))
(let ((.def_291 (not .def_290)))
(let ((.def_298 (and .def_291 .def_297)))
(let ((.def_287 (bvslt j__5$main.SSA.1.ssa bufsize__7$main)))
(let ((.def_299 (and .def_287 .def_298)))
(let ((.def_284 ((_ extract 31 31) j__5$main.SSA.1.ssa)))
(let ((.def_285 (= .def_284 (_ bv1 1))))
(let ((.def_286 (not .def_285)))
(let ((.def_300 (and .def_286 .def_299)))
(let ((.def_390 (and .def_300 .def_389)))
(let ((.def_302 (bvadd (_ bv1 32) i__3$main.SSA.1.ssa)))
(let ((.def_303 (= i__3$main.next .def_302)))
(let ((.def_391 (and .def_303 .def_390)))
(let ((.def_388 (bvslt j__5$main.SSA.2.ssa bufsize__7$main)))
(let ((.def_392 (and .def_388 .def_391)))
(let ((.def_385 ((_ extract 31 31) j__5$main.SSA.2.ssa)))
(let ((.def_386 (= .def_385 (_ bv1 1))))
(let ((.def_387 (not .def_386)))
(let ((.def_393 (and .def_387 .def_392)))
(let ((.def_396 (and .def_393 .def_395)))
(let ((.def_404 (or .def_396 .def_403)))
(let ((.def_405 (and .def_73 .def_404)))
(let ((.def_406 (and .def_76 .def_405)))
(let ((.def_407 (and .def_80 .def_406)))
(let ((.def_408 (and .def_42 .def_407)))
(let ((.def_409 (and .def_84 .def_408)))
(let ((.def_88 (and .PC.2.next .def_87)))
(let ((.def_89 (and .PC.3.next .def_88)))
(let ((.def_90 (and .def_58 .def_89)))
(let ((.def_410 (and .def_90 .def_409)))
(let ((.def_109 (and .PC.3 .def_108)))
(let ((.def_110 (and .def_10 .def_109)))
(let ((.def_411 (and .def_110 .def_410)))
(let ((.def_179 (not .PC.3.next)))
(let ((.def_163 (and .PC.0.next .PC.1.next)))
(let ((.def_164 (and .PC.2.next .def_163)))
(let ((.def_379 (and .def_164 .def_179)))
(let ((.def_380 (and .def_58 .def_379)))
(let ((.def_371 (and .def_205 .def_370)))
(let ((.def_372 (and .def_73 .def_371)))
(let ((.def_373 (and .def_76 .def_372)))
(let ((.def_374 (and .def_78 .def_373)))
(let ((.def_375 (and .def_80 .def_374)))
(let ((.def_376 (and .def_42 .def_375)))
(let ((.def_377 (and .def_46 .def_376)))
(let ((.def_378 (and .def_84 .def_377)))
(let ((.def_381 (and .def_378 .def_380)))
(let ((.def_382 (and .def_110 .def_381)))
(let ((.def_51 (and .def_49 .PC.1.next)))
(let ((.def_145 (and .def_51 .PC.2.next)))
(let ((.def_365 (and .def_145 .def_179)))
(let ((.def_366 (and .def_58 .def_365)))
(let ((.def_187 (not .def_186)))
(let ((.def_357 (and .def_187 .def_356)))
(let ((.def_358 (and .def_73 .def_357)))
(let ((.def_359 (and .def_76 .def_358)))
(let ((.def_360 (and .def_78 .def_359)))
(let ((.def_361 (and .def_80 .def_360)))
(let ((.def_362 (and .def_42 .def_361)))
(let ((.def_363 (and .def_46 .def_362)))
(let ((.def_364 (and .def_84 .def_363)))
(let ((.def_367 (and .def_364 .def_366)))
(let ((.def_368 (and .def_110 .def_367)))
(let ((.def_127 (and .PC.0.next .def_86)))
(let ((.def_128 (and .PC.2.next .def_127)))
(let ((.def_351 (and .def_128 .def_179)))
(let ((.def_352 (and .def_58 .def_351)))
(let ((.def_343 (and .def_136 .def_342)))
(let ((.def_344 (and .def_73 .def_343)))
(let ((.def_345 (and .def_76 .def_344)))
(let ((.def_346 (and .def_78 .def_345)))
(let ((.def_347 (and .def_80 .def_346)))
(let ((.def_348 (and .def_42 .def_347)))
(let ((.def_349 (and .def_46 .def_348)))
(let ((.def_350 (and .def_84 .def_349)))
(let ((.def_353 (and .def_350 .def_352)))
(let ((.def_354 (and .def_110 .def_353)))
(let ((.def_249 (and .def_88 .def_179)))
(let ((.def_338 (and .def_58 .def_249)))
(let ((.def_97 (not .def_70)))
(let ((.def_330 (and .def_97 .def_329)))
(let ((.def_331 (and .def_73 .def_330)))
(let ((.def_332 (and .def_76 .def_331)))
(let ((.def_333 (and .def_78 .def_332)))
(let ((.def_334 (and .def_80 .def_333)))
(let ((.def_335 (and .def_42 .def_334)))
(let ((.def_336 (and .def_46 .def_335)))
(let ((.def_337 (and .def_84 .def_336)))
(let ((.def_339 (and .def_337 .def_338)))
(let ((.def_340 (and .def_110 .def_339)))
(let ((.def_234 (and .def_53 .def_163)))
(let ((.def_235 (and .def_179 .def_234)))
(let ((.def_322 (and .def_58 .def_235)))
(let ((.def_283 (= j__5$main.next .def_282)))
(let ((.def_301 (and .def_283 .def_300)))
(let ((.def_304 (and .def_301 .def_303)))
(let ((.def_256 (bvslt j__5$main.next bufsize__7$main)))
(let ((.def_315 (and .def_256 .def_304)))
(let ((.def_269 ((_ extract 31 31) j__5$main.next)))
(let ((.def_270 (= .def_269 (_ bv1 1))))
(let ((.def_316 (and .def_270 .def_315)))
(let ((.def_317 (and .def_73 .def_316)))
(let ((.def_318 (and .def_76 .def_317)))
(let ((.def_319 (and .def_80 .def_318)))
(let ((.def_320 (and .def_42 .def_319)))
(let ((.def_321 (and .def_84 .def_320)))
(let ((.def_323 (and .def_321 .def_322)))
(let ((.def_324 (and .def_110 .def_323)))
(let ((.def_54 (and .def_51 .def_53)))
(let ((.def_214 (and .def_54 .def_179)))
(let ((.def_311 (and .def_58 .def_214)))
(let ((.def_257 (not .def_256)))
(let ((.def_305 (and .def_257 .def_304)))
(let ((.def_306 (and .def_73 .def_305)))
(let ((.def_307 (and .def_76 .def_306)))
(let ((.def_308 (and .def_80 .def_307)))
(let ((.def_309 (and .def_42 .def_308)))
(let ((.def_310 (and .def_84 .def_309)))
(let ((.def_312 (and .def_310 .def_311)))
(let ((.def_313 (and .def_110 .def_312)))
(let ((.def_197 (and .def_53 .def_127)))
(let ((.def_198 (and .def_179 .def_197)))
(let ((.def_277 (and .def_58 .def_198)))
(let ((.def_241 ((_ extract 31 31) i__3$main.next)))
(let ((.def_242 (= .def_241 (_ bv1 1))))
(let ((.def_254 (not .def_242)))
(let ((.def_226 (= i__3$main.next .def_114)))
(let ((.def_222 (= j__5$main.next .def_221)))
(let ((.def_225 (and .def_222 .def_224)))
(let ((.def_227 (and .def_225 .def_226)))
(let ((.def_219 (bvslt i__3$main.next len__1$main)))
(let ((.def_240 (and .def_219 .def_227)))
(let ((.def_255 (and .def_240 .def_254)))
(let ((.def_268 (and .def_255 .def_256)))
(let ((.def_271 (and .def_268 .def_270)))
(let ((.def_272 (and .def_73 .def_271)))
(let ((.def_273 (and .def_76 .def_272)))
(let ((.def_274 (and .def_80 .def_273)))
(let ((.def_275 (and .def_42 .def_274)))
(let ((.def_276 (and .def_84 .def_275)))
(let ((.def_278 (and .def_276 .def_277)))
(let ((.def_279 (and .def_110 .def_278)))
(let ((.def_181 (and .def_179 .def_180)))
(let ((.def_264 (and .def_58 .def_181)))
(let ((.def_258 (and .def_255 .def_257)))
(let ((.def_259 (and .def_73 .def_258)))
(let ((.def_260 (and .def_76 .def_259)))
(let ((.def_261 (and .def_80 .def_260)))
(let ((.def_262 (and .def_42 .def_261)))
(let ((.def_263 (and .def_84 .def_262)))
(let ((.def_265 (and .def_263 .def_264)))
(let ((.def_266 (and .def_110 .def_265)))
(let ((.def_250 (and .PC.4.next .def_249)))
(let ((.def_243 (and .def_240 .def_242)))
(let ((.def_244 (and .def_73 .def_243)))
(let ((.def_245 (and .def_76 .def_244)))
(let ((.def_246 (and .def_80 .def_245)))
(let ((.def_247 (and .def_42 .def_246)))
(let ((.def_248 (and .def_84 .def_247)))
(let ((.def_251 (and .def_248 .def_250)))
(let ((.def_252 (and .def_110 .def_251)))
(let ((.def_236 (and .PC.4.next .def_235)))
(let ((.def_220 (not .def_219)))
(let ((.def_228 (and .def_220 .def_227)))
(let ((.def_229 (and .def_73 .def_228)))
(let ((.def_230 (and .def_76 .def_229)))
(let ((.def_231 (and .def_80 .def_230)))
(let ((.def_232 (and .def_42 .def_231)))
(let ((.def_233 (and .def_84 .def_232)))
(let ((.def_237 (and .def_233 .def_236)))
(let ((.def_238 (and .def_110 .def_237)))
(let ((.def_215 (and .PC.4.next .def_214)))
(let ((.def_206 (and .def_203 .def_205)))
(let ((.def_207 (and .def_73 .def_206)))
(let ((.def_208 (and .def_76 .def_207)))
(let ((.def_209 (and .def_78 .def_208)))
(let ((.def_210 (and .def_80 .def_209)))
(let ((.def_211 (and .def_42 .def_210)))
(let ((.def_212 (and .def_46 .def_211)))
(let ((.def_213 (and .def_84 .def_212)))
(let ((.def_216 (and .def_213 .def_215)))
(let ((.def_217 (and .def_110 .def_216)))
(let ((.def_199 (and .PC.4.next .def_198)))
(let ((.def_189 (and .def_187 .def_188)))
(let ((.def_190 (and .def_73 .def_189)))
(let ((.def_191 (and .def_76 .def_190)))
(let ((.def_192 (and .def_78 .def_191)))
(let ((.def_193 (and .def_80 .def_192)))
(let ((.def_194 (and .def_42 .def_193)))
(let ((.def_195 (and .def_46 .def_194)))
(let ((.def_196 (and .def_84 .def_195)))
(let ((.def_200 (and .def_196 .def_199)))
(let ((.def_201 (and .def_110 .def_200)))
(let ((.def_182 (and .PC.4.next .def_181)))
(let ((.def_171 (and .def_136 .def_170)))
(let ((.def_172 (and .def_73 .def_171)))
(let ((.def_173 (and .def_76 .def_172)))
(let ((.def_174 (and .def_78 .def_173)))
(let ((.def_175 (and .def_80 .def_174)))
(let ((.def_176 (and .def_42 .def_175)))
(let ((.def_177 (and .def_46 .def_176)))
(let ((.def_178 (and .def_84 .def_177)))
(let ((.def_183 (and .def_178 .def_182)))
(let ((.def_184 (and .def_110 .def_183)))
(let ((.def_165 (and .PC.3.next .def_164)))
(let ((.def_166 (and .def_58 .def_165)))
(let ((.def_155 (and .def_97 .def_154)))
(let ((.def_156 (and .def_73 .def_155)))
(let ((.def_157 (and .def_76 .def_156)))
(let ((.def_158 (and .def_78 .def_157)))
(let ((.def_159 (and .def_80 .def_158)))
(let ((.def_160 (and .def_42 .def_159)))
(let ((.def_161 (and .def_46 .def_160)))
(let ((.def_162 (and .def_84 .def_161)))
(let ((.def_167 (and .def_162 .def_166)))
(let ((.def_168 (and .def_110 .def_167)))
(let ((.def_146 (and .PC.3.next .def_145)))
(let ((.def_147 (and .def_58 .def_146)))
(let ((.def_137 (and .def_134 .def_136)))
(let ((.def_138 (and .def_73 .def_137)))
(let ((.def_139 (and .def_76 .def_138)))
(let ((.def_140 (and .def_78 .def_139)))
(let ((.def_141 (and .def_80 .def_140)))
(let ((.def_142 (and .def_42 .def_141)))
(let ((.def_143 (and .def_46 .def_142)))
(let ((.def_144 (and .def_84 .def_143)))
(let ((.def_148 (and .def_144 .def_147)))
(let ((.def_149 (and .def_110 .def_148)))
(let ((.def_129 (and .PC.3.next .def_128)))
(let ((.def_130 (and .def_58 .def_129)))
(let ((.def_119 (and .def_116 .def_118)))
(let ((.def_120 (and .def_73 .def_119)))
(let ((.def_121 (and .def_76 .def_120)))
(let ((.def_122 (and .def_78 .def_121)))
(let ((.def_123 (and .def_80 .def_122)))
(let ((.def_124 (and .def_42 .def_123)))
(let ((.def_125 (and .def_46 .def_124)))
(let ((.def_126 (and .def_84 .def_125)))
(let ((.def_131 (and .def_126 .def_130)))
(let ((.def_132 (and .def_110 .def_131)))
(let ((.def_95 (not .def_94)))
(let ((.def_96 (and .def_70 .def_95)))
(let ((.def_98 (or .def_96 .def_97)))
(let ((.def_99 (and .def_73 .def_98)))
(let ((.def_100 (and .def_76 .def_99)))
(let ((.def_101 (and .def_78 .def_100)))
(let ((.def_102 (and .def_80 .def_101)))
(let ((.def_103 (and .def_42 .def_102)))
(let ((.def_104 (and .def_46 .def_103)))
(let ((.def_105 (and .def_84 .def_104)))
(let ((.def_56 (and .def_54 .PC.3.next)))
(let ((.def_59 (and .def_56 .def_58)))
(let ((.def_106 (and .def_59 .def_105)))
(let ((.def_111 (and .def_106 .def_110)))
(let ((.def_67 (= j__5$main.next (_ bv0 32))))
(let ((.def_71 (and .def_67 .def_70)))
(let ((.def_74 (and .def_71 .def_73)))
(let ((.def_77 (and .def_74 .def_76)))
(let ((.def_79 (and .def_77 .def_78)))
(let ((.def_81 (and .def_79 .def_80)))
(let ((.def_82 (and .def_42 .def_81)))
(let ((.def_85 (and .def_82 .def_84)))
(let ((.def_91 (and .def_85 .def_90)))
(let ((.def_65 (and .PC.3 .def_64)))
(let ((.def_66 (and .def_10 .def_65)))
(let ((.def_92 (and .def_66 .def_91)))
(let ((.def_38 (= i__3$main.next (_ bv0 32))))
(let ((.def_33 (bvadd (_ bv4294967292 32) bufsize__7$main.next)))
(let ((.def_35 (= .def_33 limit__9$main.next)))
(let ((.def_29 (= __BLAST_NONDET.next (_ bv0 32))))
(let ((.def_26 (= len__1$main.next |__NONDET_INLINE_INIT__2__5$main#0|)))
(let ((.def_30 (and .def_26 .def_29)))
(let ((.def_23 (= bufsize__7$main.next |__NONDET_INLINE_INIT__8__8$main#1|)))
(let ((.def_31 (and .def_23 .def_30)))
(let ((.def_36 (and .def_31 .def_35)))
(let ((.def_39 (and .def_36 .def_38)))
(let ((.def_43 (and .def_39 .def_42)))
(let ((.def_47 (and .def_43 .def_46)))
(let ((.def_60 (and .def_47 .def_59)))
(let ((.def_19 (and .PC.3 .def_18)))
(let ((.def_20 (and .def_10 .def_19)))
(let ((.def_61 (and .def_20 .def_60)))
(let ((.def_93 (or .def_61 .def_92)))
(let ((.def_112 (or .def_93 .def_111)))
(let ((.def_133 (or .def_112 .def_132)))
(let ((.def_150 (or .def_133 .def_149)))
(let ((.def_169 (or .def_150 .def_168)))
(let ((.def_185 (or .def_169 .def_184)))
(let ((.def_202 (or .def_185 .def_201)))
(let ((.def_218 (or .def_202 .def_217)))
(let ((.def_239 (or .def_218 .def_238)))
(let ((.def_253 (or .def_239 .def_252)))
(let ((.def_267 (or .def_253 .def_266)))
(let ((.def_280 (or .def_267 .def_279)))
(let ((.def_314 (or .def_280 .def_313)))
(let ((.def_325 (or .def_314 .def_324)))
(let ((.def_341 (or .def_325 .def_340)))
(let ((.def_355 (or .def_341 .def_354)))
(let ((.def_369 (or .def_355 .def_368)))
(let ((.def_383 (or .def_369 .def_382)))
(let ((.def_412 (or .def_383 .def_411)))
(let ((.def_428 (or .def_412 .def_427)))
(let ((.def_433 (or .def_428 .def_432)))
(let ((.def_438 (or .def_433 .def_437)))
(let ((.def_442 (or .def_438 .def_441)))
(let ((.def_447 (or .def_442 .def_446)))
(let ((.def_451 (or .def_447 .def_450)))
(let ((.def_455 (or .def_451 .def_454)))
(let ((.def_460 (or .def_455 .def_459)))
(let ((.def_463 (or .def_460 .def_462)))
(let ((.def_466 (or .def_463 .def_465)))
(let ((.def_469 (or .def_466 .def_468)))
(let ((.def_472 (or .def_469 .def_471)))
(let ((.def_475 (or .def_472 .def_474)))
(let ((.def_479 (or .def_475 .def_478)))
(let ((.def_483 (or .def_479 .def_482)))
(let ((.def_487 (or .def_483 .def_486)))
(let ((.def_491 (or .def_487 .def_490)))
.def_491)))))))))))))))))))))))))))))))))))))))))))))))))))))))))))))))))))))))))))))))))))))))))))))))))))))))))))))))))))))))))))))))))))))))))))))))))))))))))))))))))))))))))))))))))))))))))))))))))))))))))))))))))))))))))))))))))))))))))))))))))))))))))))))))))))))))))))))))))))))))))))))))))))))))))))))))))))))))))))))))))))))))))))))))))))))))))))))))))))))))))))))))))))))))))))))))))))))))))))))))))))))))))))))))))))))))))))))))))))))))))))))))))))) (state |.PC.4.next| |.PC.3.next| |.PC.2.next| |.PC.0.next| |.PC.1.next| |__RET__$main.next| |j__5$main.next| |len__1$main.next| |i__3$main.next| |__BLAST_NONDET.next| |limit__9$main.next| |bufsize__7$main.next|))))
(assert (forall ((|.PC.0.next| Bool) (|.PC.1.next| Bool) (|.PC.2.next| Bool) (|.PC.3.next| Bool) (|.PC.4.next| Bool) (|limit__9$main| (_ BitVec 32)) (|limit__9$main.next| (_ BitVec 32)) (|__BLAST_NONDET| (_ BitVec 32)) (|__BLAST_NONDET.next| (_ BitVec 32)) (|i__3$main| (_ BitVec 32)) (|i__3$main.next| (_ BitVec 32)) (|len__1$main| (_ BitVec 32)) (|len__1$main.next| (_ BitVec 32)) (|__RET__$main.next| (_ BitVec 32)) (|__RET__$main| (_ BitVec 32)) (|j__5$main.next| (_ BitVec 32)) (|j__5$main| (_ BitVec 32)) (|bufsize__7$main| (_ BitVec 32)) (|bufsize__7$main.next| (_ BitVec 32)) (|j__5$main.SSA.1.ssa| (_ BitVec 32)) (|i__3$main.SSA.1.ssa| (_ BitVec 32)) (|j__5$main.SSA.2.ssa| (_ BitVec 32)) (|__NONDET_INLINE_INIT__2__5$main#0| (_ BitVec 32)) (|__NONDET_INLINE_INIT__8__8$main#1| (_ BitVec 32)) (|.PC.1| Bool) (|.PC.0| Bool) (|.PC.2| Bool) (|.PC.3| Bool) (|.PC.4| Bool)) (=> (state |.PC.4| |.PC.3| |.PC.2| |.PC.0| |.PC.1| |__RET__$main| |j__5$main| |len__1$main| |i__3$main| |__BLAST_NONDET| |limit__9$main| |bufsize__7$main|) (let ((.def_62 (not .PC.0)))
(let ((.def_16 (not .PC.1)))
(let ((.def_107 (and .def_16 .def_62)))
(let ((.def_13 (not .PC.2)))
(let ((.def_456 (and .def_13 .def_107)))
(let ((.def_488 (and .PC.3 .def_456)))
(let ((.def_10 (not .PC.4)))
(let ((.def_489 (and .def_10 .def_488)))
(let ((.def_492 (not .def_489)))
.def_492))))))))))))
(check-sat)
